
  32    1
  10

   0   0  10 2 3 4 5 6 7 8 9 14 21 
   7   1   6 16 15 13 12 11 10 
   6   2   6 30 28 15 13 12 11 
   7   1   7 31 28 26 25 18 17 15 
   4   1   8 31 30 27 26 25 23 22 20 
   7   2   6 31 27 26 24 23 19 
   3   2   2 30 10 
   3   1   6 28 26 25 24 23 22 
   2   2   6 27 26 25 24 23 22 
   6   3   3 23 20 19 
   9   1   4 26 25 23 22 
  10   4   3 27 23 19 
   8   2   3 29 24 22 
   6   1   3 29 25 22 
   8   2   2 24 19 
   2   1   2 28 23 
   1   1   2 27 24 
   9   1   2 23 22 
   4   2   1 22 
   9   1   1 24 
   5   1   1 29 
   7   6   1 32
   4   3   1 32
   5   4   1 32
   6   2   1 32
  10   3   1 32
   5   1   1 32
   4   3   1 32
   1   2   1 32
   9   3   1 32
  10   1   1 32
   0   0   0 
